p edge 60 690
e 1 3
e 1 8
e 1 11
e 1 13
e 1 16
e 1 17
e 1 22
e 1 23
e 1 25
e 1 26
e 1 29
e 1 34
e 1 37
e 1 38
e 1 40
e 1 42
e 1 44
e 1 47
e 1 51
e 1 52
e 1 54
e 1 58
e 1 60
e 2 6
e 2 7
e 2 18
e 2 22
e 2 23
e 2 26
e 2 27
e 2 32
e 2 35
e 2 36
e 2 39
e 2 42
e 2 44
e 2 45
e 2 55
e 2 56
e 2 59
e 2 60
e 3 4
e 3 6
e 3 7
e 3 8
e 3 12
e 3 13
e 3 14
e 3 22
e 3 23
e 3 24
e 3 25
e 3 26
e 3 29
e 3 32
e 3 39
e 3 43
e 3 49
e 3 50
e 3 51
e 3 56
e 3 58
e 3 59
e 4 6
e 4 13
e 4 19
e 4 21
e 4 22
e 4 23
e 4 25
e 4 27
e 4 33
e 4 34
e 4 38
e 4 42
e 4 43
e 4 47
e 4 49
e 4 51
e 4 56
e 5 8
e 5 9
e 5 13
e 5 14
e 5 15
e 5 18
e 5 19
e 5 21
e 5 22
e 5 24
e 5 25
e 5 26
e 5 27
e 5 29
e 5 30
e 5 34
e 5 35
e 5 38
e 5 39
e 5 46
e 5 49
e 5 52
e 5 54
e 5 55
e 5 56
e 5 58
e 5 59
e 6 8
e 6 11
e 6 20
e 6 25
e 6 27
e 6 31
e 6 35
e 6 39
e 6 41
e 6 42
e 6 46
e 6 48
e 6 49
e 6 53
e 6 58
e 6 60
e 7 10
e 7 12
e 7 13
e 7 14
e 7 15
e 7 17
e 7 22
e 7 23
e 7 24
e 7 27
e 7 29
e 7 31
e 7 34
e 7 37
e 7 38
e 7 39
e 7 40
e 7 43
e 7 44
e 7 45
e 7 49
e 7 50
e 7 52
e 7 53
e 7 54
e 7 57
e 7 59
e 8 9
e 8 10
e 8 12
e 8 13
e 8 15
e 8 17
e 8 18
e 8 23
e 8 24
e 8 27
e 8 32
e 8 37
e 8 38
e 8 40
e 8 45
e 8 46
e 8 51
e 8 53
e 8 54
e 8 55
e 8 56
e 8 59
e 8 60
e 9 11
e 9 13
e 9 22
e 9 28
e 9 36
e 9 41
e 9 42
e 9 45
e 9 46
e 9 47
e 9 48
e 9 51
e 9 52
e 9 55
e 9 57
e 10 13
e 10 15
e 10 16
e 10 18
e 10 20
e 10 25
e 10 29
e 10 30
e 10 33
e 10 34
e 10 42
e 10 46
e 10 47
e 10 52
e 10 55
e 10 57
e 11 13
e 11 14
e 11 20
e 11 22
e 11 23
e 11 26
e 11 33
e 11 34
e 11 38
e 11 42
e 11 46
e 11 48
e 11 50
e 11 52
e 11 55
e 11 60
e 12 14
e 12 15
e 12 17
e 12 22
e 12 24
e 12 25
e 12 26
e 12 29
e 12 31
e 12 32
e 12 37
e 12 38
e 12 41
e 12 43
e 12 45
e 12 52
e 12 54
e 12 56
e 12 57
e 12 60
e 13 15
e 13 16
e 13 19
e 13 26
e 13 30
e 13 33
e 13 34
e 13 39
e 13 41
e 13 43
e 13 44
e 13 45
e 13 46
e 13 47
e 13 48
e 13 51
e 13 52
e 13 53
e 13 55
e 14 18
e 14 19
e 14 22
e 14 24
e 14 25
e 14 26
e 14 28
e 14 35
e 14 37
e 14 44
e 14 45
e 14 48
e 14 49
e 14 50
e 14 52
e 14 54
e 14 55
e 14 57
e 14 58
e 14 59
e 15 18
e 15 19
e 15 23
e 15 25
e 15 26
e 15 27
e 15 30
e 15 33
e 15 34
e 15 36
e 15 37
e 15 38
e 15 42
e 15 45
e 15 46
e 15 48
e 15 50
e 15 51
e 15 52
e 15 53
e 15 54
e 15 57
e 16 18
e 16 19
e 16 22
e 16 23
e 16 25
e 16 34
e 16 35
e 16 40
e 16 42
e 16 44
e 16 47
e 16 48
e 16 50
e 16 51
e 16 52
e 16 55
e 16 56
e 16 60
e 17 18
e 17 20
e 17 23
e 17 24
e 17 25
e 17 31
e 17 35
e 17 37
e 17 38
e 17 42
e 17 44
e 17 45
e 17 48
e 17 51
e 17 58
e 17 59
e 18 19
e 18 23
e 18 25
e 18 30
e 18 31
e 18 33
e 18 35
e 18 37
e 18 41
e 18 42
e 18 44
e 18 45
e 18 46
e 18 48
e 18 50
e 18 51
e 18 52
e 18 54
e 18 55
e 18 56
e 18 57
e 18 58
e 19 20
e 19 21
e 19 24
e 19 26
e 19 27
e 19 30
e 19 33
e 19 35
e 19 36
e 19 42
e 19 43
e 19 44
e 19 45
e 19 46
e 19 47
e 19 51
e 19 53
e 19 56
e 19 60
e 20 21
e 20 22
e 20 23
e 20 24
e 20 29
e 20 34
e 20 40
e 20 41
e 20 44
e 20 49
e 20 50
e 20 53
e 20 55
e 20 60
e 21 24
e 21 26
e 21 27
e 21 28
e 21 31
e 21 33
e 21 34
e 21 40
e 21 44
e 21 45
e 21 46
e 21 48
e 21 50
e 21 57
e 21 58
e 22 24
e 22 25
e 22 26
e 22 28
e 22 29
e 22 30
e 22 32
e 22 33
e 22 34
e 22 35
e 22 38
e 22 40
e 22 44
e 22 45
e 22 48
e 22 49
e 22 52
e 22 55
e 22 57
e 22 58
e 22 59
e 23 25
e 23 26
e 23 28
e 23 29
e 23 30
e 23 35
e 23 40
e 23 42
e 23 47
e 23 52
e 23 53
e 23 55
e 23 56
e 23 59
e 23 60
e 24 25
e 24 28
e 24 32
e 24 33
e 24 35
e 24 42
e 24 44
e 24 46
e 24 48
e 24 49
e 24 51
e 24 52
e 24 56
e 24 58
e 25 27
e 25 30
e 25 31
e 25 33
e 25 35
e 25 36
e 25 38
e 25 39
e 25 40
e 25 42
e 25 44
e 25 46
e 25 49
e 25 51
e 25 52
e 25 55
e 25 56
e 25 59
e 26 27
e 26 28
e 26 29
e 26 30
e 26 40
e 26 43
e 26 45
e 26 46
e 26 52
e 26 56
e 26 59
e 26 60
e 27 28
e 27 32
e 27 34
e 27 35
e 27 36
e 27 38
e 27 46
e 27 48
e 27 51
e 27 56
e 27 57
e 27 59
e 28 31
e 28 32
e 28 35
e 28 38
e 28 40
e 28 41
e 28 43
e 28 45
e 28 47
e 28 50
e 28 53
e 28 57
e 28 59
e 28 60
e 29 32
e 29 34
e 29 35
e 29 36
e 29 40
e 29 45
e 29 46
e 29 47
e 29 48
e 29 50
e 29 51
e 29 53
e 29 54
e 29 56
e 29 57
e 29 58
e 29 59
e 29 60
e 30 36
e 30 41
e 30 48
e 30 52
e 30 56
e 30 57
e 30 58
e 31 33
e 31 34
e 31 35
e 31 36
e 31 38
e 31 39
e 31 41
e 31 42
e 31 45
e 31 49
e 31 50
e 31 51
e 31 55
e 31 57
e 31 58
e 31 59
e 32 39
e 32 44
e 32 47
e 32 48
e 32 56
e 32 57
e 32 59
e 32 60
e 33 41
e 33 46
e 33 49
e 33 53
e 33 54
e 34 36
e 34 41
e 34 44
e 34 45
e 34 47
e 34 52
e 34 53
e 34 54
e 34 59
e 34 60
e 35 36
e 35 40
e 35 41
e 35 43
e 35 48
e 35 49
e 35 50
e 35 52
e 35 55
e 35 56
e 35 60
e 36 37
e 36 40
e 36 43
e 36 48
e 36 51
e 36 52
e 36 54
e 36 55
e 37 42
e 37 43
e 37 45
e 37 47
e 37 48
e 37 53
e 37 56
e 38 40
e 38 43
e 38 47
e 38 52
e 38 53
e 38 55
e 38 59
e 38 60
e 39 46
e 39 48
e 39 49
e 39 50
e 39 55
e 39 56
e 39 59
e 39 60
e 40 41
e 40 43
e 40 45
e 40 48
e 40 57
e 41 43
e 41 46
e 41 49
e 41 57
e 42 45
e 42 47
e 42 48
e 42 56
e 42 57
e 43 44
e 43 46
e 43 47
e 43 48
e 43 59
e 44 45
e 44 46
e 44 52
e 44 57
e 44 60
e 45 47
e 45 48
e 45 50
e 45 53
e 45 56
e 45 57
e 45 58
e 45 59
e 45 60
e 46 47
e 46 51
e 46 53
e 46 55
e 46 57
e 46 58
e 47 52
e 47 54
e 47 59
e 48 51
e 48 53
e 48 57
e 48 59
e 49 52
e 49 54
e 49 55
e 49 56
e 49 59
e 50 51
e 50 53
e 51 53
e 51 54
e 51 56
e 51 59
e 52 53
e 52 54
e 53 54
e 53 58
e 54 55
e 54 59
e 54 60
e 55 56
e 55 59
e 55 60
e 56 59
e 56 60
e 57 59
e 57 60
e 58 60
e 59 60
